p cnf 531 2120
c p weight 216 0 0
c p weight -216 1 0
c p weight 217 1.0 0
c p weight -217 1 0
212 -211 209 0
212 -211 210 0
-212 211 209 0
-212 211 210 0
212 211 -209 -210 0
-212 -211 -209 -210 0
213 209 -210 0
213 -209 210 0
-213 209 210 0
-213 -209 -210 0
214 215 -212 0
214 -212 213 0
-214 215 212 0
-214 212 213 0
214 -212 -209 0
-214 212 -209 0
214 -215 212 209 -213 0
-214 -215 -212 209 -213 0
215 -209 213 0
-215 209 213 0
-216 213 0
215 -216 -209 0
-215 -216 209 0
215 216 209 -213 0
-215 216 -209 -213 0
-217 213 0
215 -217 209 0
-215 -217 -209 0
215 217 -209 -213 0
-215 217 209 -213 0
218 -214 215 0
218 -214 213 0
-218 214 215 0
-218 214 213 0
218 214 -215 -213 0
-218 -214 -215 -213 0
219 215 -213 0
219 -215 213 0
-219 215 213 0
-219 -215 -213 0
220 -218 215 0
220 -218 208 0
-220 218 215 0
-220 218 208 0
220 -218 207 -219 0
220 -218 -207 219 0
-220 218 207 -219 0
-220 218 -207 219 0
220 218 -215 207 219 -208 0
220 218 -215 -207 -219 -208 0
-220 -218 -215 207 219 -208 0
-220 -218 -215 -207 -219 -208 0
222 215 -207 0
222 -215 207 0
-222 215 207 0
-222 -215 -207 0
221 219 -208 0
221 -219 208 0
-221 219 208 0
-221 -219 -208 0
223 -220 222 0
223 -220 206 0
-223 220 222 0
-223 220 206 0
223 -220 205 -208 0
223 -220 -205 208 0
-223 220 205 -208 0
-223 220 -205 208 0
223 220 -222 205 208 -206 0
223 220 -222 -205 -208 -206 0
-223 -220 -222 205 208 -206 0
-223 -220 -222 -205 -208 -206 0
225 222 -205 0
225 -222 205 0
-225 222 205 0
-225 -222 -205 0
224 208 -206 0
224 -208 206 0
-224 208 206 0
-224 -208 -206 0
226 -223 225 0
226 -223 204 0
-226 223 225 0
-226 223 204 0
226 -223 203 -206 0
226 -223 -203 206 0
-226 223 203 -206 0
-226 223 -203 206 0
226 223 -225 203 206 -204 0
226 223 -225 -203 -206 -204 0
-226 -223 -225 203 206 -204 0
-226 -223 -225 -203 -206 -204 0
228 225 -203 0
228 -225 203 0
-228 225 203 0
-228 -225 -203 0
227 206 -204 0
227 -206 204 0
-227 206 204 0
-227 -206 -204 0
229 -226 228 0
229 -226 202 0
-229 226 228 0
-229 226 202 0
229 -226 201 -204 0
229 -226 -201 204 0
-229 226 201 -204 0
-229 226 -201 204 0
229 226 -228 201 204 -202 0
229 226 -228 -201 -204 -202 0
-229 -226 -228 201 204 -202 0
-229 -226 -228 -201 -204 -202 0
231 228 -201 0
231 -228 201 0
-231 228 201 0
-231 -228 -201 0
230 204 -202 0
230 -204 202 0
-230 204 202 0
-230 -204 -202 0
232 -229 231 0
232 -229 200 0
-232 229 231 0
-232 229 200 0
232 -229 199 -202 0
232 -229 -199 202 0
-232 229 199 -202 0
-232 229 -199 202 0
232 229 -231 199 202 -200 0
232 229 -231 -199 -202 -200 0
-232 -229 -231 199 202 -200 0
-232 -229 -231 -199 -202 -200 0
234 231 -199 0
234 -231 199 0
-234 231 199 0
-234 -231 -199 0
233 202 -200 0
233 -202 200 0
-233 202 200 0
-233 -202 -200 0
235 -232 234 0
235 -232 198 0
-235 232 234 0
-235 232 198 0
235 -232 197 -200 0
235 -232 -197 200 0
-235 232 197 -200 0
-235 232 -197 200 0
235 232 -234 197 200 -198 0
235 232 -234 -197 -200 -198 0
-235 -232 -234 197 200 -198 0
-235 -232 -234 -197 -200 -198 0
237 234 -197 0
237 -234 197 0
-237 234 197 0
-237 -234 -197 0
236 200 -198 0
236 -200 198 0
-236 200 198 0
-236 -200 -198 0
238 -235 237 0
238 -235 196 0
-238 235 237 0
-238 235 196 0
238 -235 195 -198 0
238 -235 -195 198 0
-238 235 195 -198 0
-238 235 -195 198 0
238 235 -237 195 198 -196 0
238 235 -237 -195 -198 -196 0
-238 -235 -237 195 198 -196 0
-238 -235 -237 -195 -198 -196 0
240 237 -195 0
240 -237 195 0
-240 237 195 0
-240 -237 -195 0
239 198 -196 0
239 -198 196 0
-239 198 196 0
-239 -198 -196 0
241 -238 240 0
241 -238 194 0
-241 238 240 0
-241 238 194 0
241 -238 193 -196 0
241 -238 -193 196 0
-241 238 193 -196 0
-241 238 -193 196 0
241 238 -240 193 196 -194 0
241 238 -240 -193 -196 -194 0
-241 -238 -240 193 196 -194 0
-241 -238 -240 -193 -196 -194 0
243 240 -193 0
243 -240 193 0
-243 240 193 0
-243 -240 -193 0
242 196 -194 0
242 -196 194 0
-242 196 194 0
-242 -196 -194 0
244 -241 243 0
244 -241 192 0
-244 241 243 0
-244 241 192 0
244 -241 191 -194 0
244 -241 -191 194 0
-244 241 191 -194 0
-244 241 -191 194 0
244 241 -243 191 194 -192 0
244 241 -243 -191 -194 -192 0
-244 -241 -243 191 194 -192 0
-244 -241 -243 -191 -194 -192 0
246 243 -191 0
246 -243 191 0
-246 243 191 0
-246 -243 -191 0
245 194 -192 0
245 -194 192 0
-245 194 192 0
-245 -194 -192 0
247 -244 246 0
247 -244 190 0
-247 244 246 0
-247 244 190 0
247 -244 189 -192 0
247 -244 -189 192 0
-247 244 189 -192 0
-247 244 -189 192 0
247 244 -246 189 192 -190 0
247 244 -246 -189 -192 -190 0
-247 -244 -246 189 192 -190 0
-247 -244 -246 -189 -192 -190 0
249 246 -189 0
249 -246 189 0
-249 246 189 0
-249 -246 -189 0
248 192 -190 0
248 -192 190 0
-248 192 190 0
-248 -192 -190 0
250 -247 249 0
250 -247 188 0
-250 247 249 0
-250 247 188 0
250 -247 187 -190 0
250 -247 -187 190 0
-250 247 187 -190 0
-250 247 -187 190 0
250 247 -249 187 190 -188 0
250 247 -249 -187 -190 -188 0
-250 -247 -249 187 190 -188 0
-250 -247 -249 -187 -190 -188 0
252 249 -187 0
252 -249 187 0
-252 249 187 0
-252 -249 -187 0
251 190 -188 0
251 -190 188 0
-251 190 188 0
-251 -190 -188 0
253 -250 252 0
253 -250 186 0
-253 250 252 0
-253 250 186 0
253 -250 185 -188 0
253 -250 -185 188 0
-253 250 185 -188 0
-253 250 -185 188 0
253 250 -252 185 188 -186 0
253 250 -252 -185 -188 -186 0
-253 -250 -252 185 188 -186 0
-253 -250 -252 -185 -188 -186 0
255 252 -185 0
255 -252 185 0
-255 252 185 0
-255 -252 -185 0
254 188 -186 0
254 -188 186 0
-254 188 186 0
-254 -188 -186 0
256 -253 255 0
256 -253 184 0
-256 253 255 0
-256 253 184 0
256 -253 183 -186 0
256 -253 -183 186 0
-256 253 183 -186 0
-256 253 -183 186 0
256 253 -255 183 186 -184 0
256 253 -255 -183 -186 -184 0
-256 -253 -255 183 186 -184 0
-256 -253 -255 -183 -186 -184 0
258 255 -183 0
258 -255 183 0
-258 255 183 0
-258 -255 -183 0
257 186 -184 0
257 -186 184 0
-257 186 184 0
-257 -186 -184 0
259 -256 258 0
259 -256 182 0
-259 256 258 0
-259 256 182 0
259 -256 181 -184 0
259 -256 -181 184 0
-259 256 181 -184 0
-259 256 -181 184 0
259 256 -258 181 184 -182 0
259 256 -258 -181 -184 -182 0
-259 -256 -258 181 184 -182 0
-259 -256 -258 -181 -184 -182 0
261 258 -181 0
261 -258 181 0
-261 258 181 0
-261 -258 -181 0
260 184 -182 0
260 -184 182 0
-260 184 182 0
-260 -184 -182 0
262 -259 261 0
262 -259 180 0
-262 259 261 0
-262 259 180 0
262 -259 179 -182 0
262 -259 -179 182 0
-262 259 179 -182 0
-262 259 -179 182 0
262 259 -261 179 182 -180 0
262 259 -261 -179 -182 -180 0
-262 -259 -261 179 182 -180 0
-262 -259 -261 -179 -182 -180 0
264 261 -179 0
264 -261 179 0
-264 261 179 0
-264 -261 -179 0
263 182 -180 0
263 -182 180 0
-263 182 180 0
-263 -182 -180 0
265 -262 264 0
265 -262 178 0
-265 262 264 0
-265 262 178 0
265 -262 177 -180 0
265 -262 -177 180 0
-265 262 177 -180 0
-265 262 -177 180 0
265 262 -264 177 180 -178 0
265 262 -264 -177 -180 -178 0
-265 -262 -264 177 180 -178 0
-265 -262 -264 -177 -180 -178 0
267 264 -177 0
267 -264 177 0
-267 264 177 0
-267 -264 -177 0
266 180 -178 0
266 -180 178 0
-266 180 178 0
-266 -180 -178 0
268 -265 267 0
268 -265 176 0
-268 265 267 0
-268 265 176 0
268 -265 175 -178 0
268 -265 -175 178 0
-268 265 175 -178 0
-268 265 -175 178 0
268 265 -267 175 178 -176 0
268 265 -267 -175 -178 -176 0
-268 -265 -267 175 178 -176 0
-268 -265 -267 -175 -178 -176 0
270 267 -175 0
270 -267 175 0
-270 267 175 0
-270 -267 -175 0
269 178 -176 0
269 -178 176 0
-269 178 176 0
-269 -178 -176 0
271 -268 270 0
271 -268 174 0
-271 268 270 0
-271 268 174 0
271 -268 173 -176 0
271 -268 -173 176 0
-271 268 173 -176 0
-271 268 -173 176 0
271 268 -270 173 176 -174 0
271 268 -270 -173 -176 -174 0
-271 -268 -270 173 176 -174 0
-271 -268 -270 -173 -176 -174 0
273 270 -173 0
273 -270 173 0
-273 270 173 0
-273 -270 -173 0
272 176 -174 0
272 -176 174 0
-272 176 174 0
-272 -176 -174 0
274 -271 273 0
274 -271 172 0
-274 271 273 0
-274 271 172 0
274 -271 171 -174 0
274 -271 -171 174 0
-274 271 171 -174 0
-274 271 -171 174 0
274 271 -273 171 174 -172 0
274 271 -273 -171 -174 -172 0
-274 -271 -273 171 174 -172 0
-274 -271 -273 -171 -174 -172 0
276 273 -171 0
276 -273 171 0
-276 273 171 0
-276 -273 -171 0
275 174 -172 0
275 -174 172 0
-275 174 172 0
-275 -174 -172 0
277 -274 276 0
277 -274 170 0
-277 274 276 0
-277 274 170 0
277 -274 169 -172 0
277 -274 -169 172 0
-277 274 169 -172 0
-277 274 -169 172 0
277 274 -276 169 172 -170 0
277 274 -276 -169 -172 -170 0
-277 -274 -276 169 172 -170 0
-277 -274 -276 -169 -172 -170 0
279 276 -169 0
279 -276 169 0
-279 276 169 0
-279 -276 -169 0
278 172 -170 0
278 -172 170 0
-278 172 170 0
-278 -172 -170 0
280 -277 279 0
280 -277 168 0
-280 277 279 0
-280 277 168 0
280 -277 167 -170 0
280 -277 -167 170 0
-280 277 167 -170 0
-280 277 -167 170 0
280 277 -279 167 170 -168 0
280 277 -279 -167 -170 -168 0
-280 -277 -279 167 170 -168 0
-280 -277 -279 -167 -170 -168 0
282 279 -167 0
282 -279 167 0
-282 279 167 0
-282 -279 -167 0
281 170 -168 0
281 -170 168 0
-281 170 168 0
-281 -170 -168 0
283 -280 282 0
283 -280 166 0
-283 280 282 0
-283 280 166 0
283 -280 165 -168 0
283 -280 -165 168 0
-283 280 165 -168 0
-283 280 -165 168 0
283 280 -282 165 168 -166 0
283 280 -282 -165 -168 -166 0
-283 -280 -282 165 168 -166 0
-283 -280 -282 -165 -168 -166 0
285 282 -165 0
285 -282 165 0
-285 282 165 0
-285 -282 -165 0
284 168 -166 0
284 -168 166 0
-284 168 166 0
-284 -168 -166 0
286 -283 285 0
286 -283 164 0
-286 283 285 0
-286 283 164 0
286 -283 163 -166 0
286 -283 -163 166 0
-286 283 163 -166 0
-286 283 -163 166 0
286 283 -285 163 166 -164 0
286 283 -285 -163 -166 -164 0
-286 -283 -285 163 166 -164 0
-286 -283 -285 -163 -166 -164 0
288 285 -163 0
288 -285 163 0
-288 285 163 0
-288 -285 -163 0
287 166 -164 0
287 -166 164 0
-287 166 164 0
-287 -166 -164 0
289 -286 288 0
289 -286 162 0
-289 286 288 0
-289 286 162 0
289 -286 161 -164 0
289 -286 -161 164 0
-289 286 161 -164 0
-289 286 -161 164 0
289 286 -288 161 164 -162 0
289 286 -288 -161 -164 -162 0
-289 -286 -288 161 164 -162 0
-289 -286 -288 -161 -164 -162 0
291 288 -161 0
291 -288 161 0
-291 288 161 0
-291 -288 -161 0
290 164 -162 0
290 -164 162 0
-290 164 162 0
-290 -164 -162 0
292 -289 291 0
292 -289 160 0
-292 289 291 0
-292 289 160 0
292 -289 159 -162 0
292 -289 -159 162 0
-292 289 159 -162 0
-292 289 -159 162 0
292 289 -291 159 162 -160 0
292 289 -291 -159 -162 -160 0
-292 -289 -291 159 162 -160 0
-292 -289 -291 -159 -162 -160 0
294 291 -159 0
294 -291 159 0
-294 291 159 0
-294 -291 -159 0
293 162 -160 0
293 -162 160 0
-293 162 160 0
-293 -162 -160 0
295 -292 294 0
295 -292 158 0
-295 292 294 0
-295 292 158 0
295 -292 157 -160 0
295 -292 -157 160 0
-295 292 157 -160 0
-295 292 -157 160 0
295 292 -294 157 160 -158 0
295 292 -294 -157 -160 -158 0
-295 -292 -294 157 160 -158 0
-295 -292 -294 -157 -160 -158 0
297 294 -157 0
297 -294 157 0
-297 294 157 0
-297 -294 -157 0
296 160 -158 0
296 -160 158 0
-296 160 158 0
-296 -160 -158 0
298 -295 297 0
298 -295 156 0
-298 295 297 0
-298 295 156 0
298 -295 155 -158 0
298 -295 -155 158 0
-298 295 155 -158 0
-298 295 -155 158 0
298 295 -297 155 158 -156 0
298 295 -297 -155 -158 -156 0
-298 -295 -297 155 158 -156 0
-298 -295 -297 -155 -158 -156 0
300 297 -155 0
300 -297 155 0
-300 297 155 0
-300 -297 -155 0
299 158 -156 0
299 -158 156 0
-299 158 156 0
-299 -158 -156 0
301 -298 300 0
301 -298 154 0
-301 298 300 0
-301 298 154 0
301 -298 153 -156 0
301 -298 -153 156 0
-301 298 153 -156 0
-301 298 -153 156 0
301 298 -300 153 156 -154 0
301 298 -300 -153 -156 -154 0
-301 -298 -300 153 156 -154 0
-301 -298 -300 -153 -156 -154 0
303 300 -153 0
303 -300 153 0
-303 300 153 0
-303 -300 -153 0
302 156 -154 0
302 -156 154 0
-302 156 154 0
-302 -156 -154 0
304 -301 303 0
304 -301 152 0
-304 301 303 0
-304 301 152 0
304 -301 151 -154 0
304 -301 -151 154 0
-304 301 151 -154 0
-304 301 -151 154 0
304 301 -303 151 154 -152 0
304 301 -303 -151 -154 -152 0
-304 -301 -303 151 154 -152 0
-304 -301 -303 -151 -154 -152 0
306 303 -151 0
306 -303 151 0
-306 303 151 0
-306 -303 -151 0
305 154 -152 0
305 -154 152 0
-305 154 152 0
-305 -154 -152 0
307 -304 306 0
307 -304 150 0
-307 304 306 0
-307 304 150 0
307 -304 149 -152 0
307 -304 -149 152 0
-307 304 149 -152 0
-307 304 -149 152 0
307 304 -306 149 152 -150 0
307 304 -306 -149 -152 -150 0
-307 -304 -306 149 152 -150 0
-307 -304 -306 -149 -152 -150 0
309 306 -149 0
309 -306 149 0
-309 306 149 0
-309 -306 -149 0
308 152 -150 0
308 -152 150 0
-308 152 150 0
-308 -152 -150 0
310 -307 309 0
310 -307 148 0
-310 307 309 0
-310 307 148 0
310 -307 147 -150 0
310 -307 -147 150 0
-310 307 147 -150 0
-310 307 -147 150 0
310 307 -309 147 150 -148 0
310 307 -309 -147 -150 -148 0
-310 -307 -309 147 150 -148 0
-310 -307 -309 -147 -150 -148 0
312 309 -147 0
312 -309 147 0
-312 309 147 0
-312 -309 -147 0
311 150 -148 0
311 -150 148 0
-311 150 148 0
-311 -150 -148 0
313 -310 312 0
313 -310 146 0
-313 310 312 0
-313 310 146 0
313 -310 145 -148 0
313 -310 -145 148 0
-313 310 145 -148 0
-313 310 -145 148 0
313 310 -312 145 148 -146 0
313 310 -312 -145 -148 -146 0
-313 -310 -312 145 148 -146 0
-313 -310 -312 -145 -148 -146 0
315 312 -145 0
315 -312 145 0
-315 312 145 0
-315 -312 -145 0
314 148 -146 0
314 -148 146 0
-314 148 146 0
-314 -148 -146 0
316 -313 315 0
316 -313 144 0
-316 313 315 0
-316 313 144 0
316 -313 143 -146 0
316 -313 -143 146 0
-316 313 143 -146 0
-316 313 -143 146 0
316 313 -315 143 146 -144 0
316 313 -315 -143 -146 -144 0
-316 -313 -315 143 146 -144 0
-316 -313 -315 -143 -146 -144 0
318 315 -143 0
318 -315 143 0
-318 315 143 0
-318 -315 -143 0
317 146 -144 0
317 -146 144 0
-317 146 144 0
-317 -146 -144 0
319 -316 318 0
319 -316 142 0
-319 316 318 0
-319 316 142 0
319 -316 141 -144 0
319 -316 -141 144 0
-319 316 141 -144 0
-319 316 -141 144 0
319 316 -318 141 144 -142 0
319 316 -318 -141 -144 -142 0
-319 -316 -318 141 144 -142 0
-319 -316 -318 -141 -144 -142 0
321 318 -141 0
321 -318 141 0
-321 318 141 0
-321 -318 -141 0
320 144 -142 0
320 -144 142 0
-320 144 142 0
-320 -144 -142 0
322 -319 321 0
322 -319 140 0
-322 319 321 0
-322 319 140 0
322 -319 139 -142 0
322 -319 -139 142 0
-322 319 139 -142 0
-322 319 -139 142 0
322 319 -321 139 142 -140 0
322 319 -321 -139 -142 -140 0
-322 -319 -321 139 142 -140 0
-322 -319 -321 -139 -142 -140 0
324 321 -139 0
324 -321 139 0
-324 321 139 0
-324 -321 -139 0
323 142 -140 0
323 -142 140 0
-323 142 140 0
-323 -142 -140 0
325 -322 324 0
325 -322 138 0
-325 322 324 0
-325 322 138 0
325 -322 137 -140 0
325 -322 -137 140 0
-325 322 137 -140 0
-325 322 -137 140 0
325 322 -324 137 140 -138 0
325 322 -324 -137 -140 -138 0
-325 -322 -324 137 140 -138 0
-325 -322 -324 -137 -140 -138 0
327 324 -137 0
327 -324 137 0
-327 324 137 0
-327 -324 -137 0
326 140 -138 0
326 -140 138 0
-326 140 138 0
-326 -140 -138 0
328 -325 327 0
328 -325 136 0
-328 325 327 0
-328 325 136 0
328 -325 135 -138 0
328 -325 -135 138 0
-328 325 135 -138 0
-328 325 -135 138 0
328 325 -327 135 138 -136 0
328 325 -327 -135 -138 -136 0
-328 -325 -327 135 138 -136 0
-328 -325 -327 -135 -138 -136 0
330 327 -135 0
330 -327 135 0
-330 327 135 0
-330 -327 -135 0
329 138 -136 0
329 -138 136 0
-329 138 136 0
-329 -138 -136 0
331 -328 330 0
331 -328 134 0
-331 328 330 0
-331 328 134 0
331 -328 133 -136 0
331 -328 -133 136 0
-331 328 133 -136 0
-331 328 -133 136 0
331 328 -330 133 136 -134 0
331 328 -330 -133 -136 -134 0
-331 -328 -330 133 136 -134 0
-331 -328 -330 -133 -136 -134 0
333 330 -133 0
333 -330 133 0
-333 330 133 0
-333 -330 -133 0
332 136 -134 0
332 -136 134 0
-332 136 134 0
-332 -136 -134 0
334 -331 333 0
334 -331 132 0
-334 331 333 0
-334 331 132 0
334 -331 131 -134 0
334 -331 -131 134 0
-334 331 131 -134 0
-334 331 -131 134 0
334 331 -333 131 134 -132 0
334 331 -333 -131 -134 -132 0
-334 -331 -333 131 134 -132 0
-334 -331 -333 -131 -134 -132 0
336 333 -131 0
336 -333 131 0
-336 333 131 0
-336 -333 -131 0
335 134 -132 0
335 -134 132 0
-335 134 132 0
-335 -134 -132 0
337 -334 336 0
337 -334 130 0
-337 334 336 0
-337 334 130 0
337 -334 129 -132 0
337 -334 -129 132 0
-337 334 129 -132 0
-337 334 -129 132 0
337 334 -336 129 132 -130 0
337 334 -336 -129 -132 -130 0
-337 -334 -336 129 132 -130 0
-337 -334 -336 -129 -132 -130 0
339 336 -129 0
339 -336 129 0
-339 336 129 0
-339 -336 -129 0
338 132 -130 0
338 -132 130 0
-338 132 130 0
-338 -132 -130 0
340 -337 339 0
340 -337 128 0
-340 337 339 0
-340 337 128 0
340 -337 127 -130 0
340 -337 -127 130 0
-340 337 127 -130 0
-340 337 -127 130 0
340 337 -339 127 130 -128 0
340 337 -339 -127 -130 -128 0
-340 -337 -339 127 130 -128 0
-340 -337 -339 -127 -130 -128 0
342 339 -127 0
342 -339 127 0
-342 339 127 0
-342 -339 -127 0
341 130 -128 0
341 -130 128 0
-341 130 128 0
-341 -130 -128 0
343 -340 342 0
343 -340 126 0
-343 340 342 0
-343 340 126 0
343 -340 125 -128 0
343 -340 -125 128 0
-343 340 125 -128 0
-343 340 -125 128 0
343 340 -342 125 128 -126 0
343 340 -342 -125 -128 -126 0
-343 -340 -342 125 128 -126 0
-343 -340 -342 -125 -128 -126 0
345 342 -125 0
345 -342 125 0
-345 342 125 0
-345 -342 -125 0
344 128 -126 0
344 -128 126 0
-344 128 126 0
-344 -128 -126 0
346 -343 345 0
346 -343 124 0
-346 343 345 0
-346 343 124 0
346 -343 123 -126 0
346 -343 -123 126 0
-346 343 123 -126 0
-346 343 -123 126 0
346 343 -345 123 126 -124 0
346 343 -345 -123 -126 -124 0
-346 -343 -345 123 126 -124 0
-346 -343 -345 -123 -126 -124 0
348 345 -123 0
348 -345 123 0
-348 345 123 0
-348 -345 -123 0
347 126 -124 0
347 -126 124 0
-347 126 124 0
-347 -126 -124 0
349 -346 348 0
349 -346 122 0
-349 346 348 0
-349 346 122 0
349 -346 121 -124 0
349 -346 -121 124 0
-349 346 121 -124 0
-349 346 -121 124 0
349 346 -348 121 124 -122 0
349 346 -348 -121 -124 -122 0
-349 -346 -348 121 124 -122 0
-349 -346 -348 -121 -124 -122 0
351 348 -121 0
351 -348 121 0
-351 348 121 0
-351 -348 -121 0
350 124 -122 0
350 -124 122 0
-350 124 122 0
-350 -124 -122 0
352 -349 351 0
352 -349 120 0
-352 349 351 0
-352 349 120 0
352 -349 119 -122 0
352 -349 -119 122 0
-352 349 119 -122 0
-352 349 -119 122 0
352 349 -351 119 122 -120 0
352 349 -351 -119 -122 -120 0
-352 -349 -351 119 122 -120 0
-352 -349 -351 -119 -122 -120 0
354 351 -119 0
354 -351 119 0
-354 351 119 0
-354 -351 -119 0
353 122 -120 0
353 -122 120 0
-353 122 120 0
-353 -122 -120 0
355 -352 354 0
355 -352 118 0
-355 352 354 0
-355 352 118 0
355 -352 117 -120 0
355 -352 -117 120 0
-355 352 117 -120 0
-355 352 -117 120 0
355 352 -354 117 120 -118 0
355 352 -354 -117 -120 -118 0
-355 -352 -354 117 120 -118 0
-355 -352 -354 -117 -120 -118 0
357 354 -117 0
357 -354 117 0
-357 354 117 0
-357 -354 -117 0
356 120 -118 0
356 -120 118 0
-356 120 118 0
-356 -120 -118 0
358 -355 357 0
358 -355 116 0
-358 355 357 0
-358 355 116 0
358 -355 115 -118 0
358 -355 -115 118 0
-358 355 115 -118 0
-358 355 -115 118 0
358 355 -357 115 118 -116 0
358 355 -357 -115 -118 -116 0
-358 -355 -357 115 118 -116 0
-358 -355 -357 -115 -118 -116 0
360 357 -115 0
360 -357 115 0
-360 357 115 0
-360 -357 -115 0
359 118 -116 0
359 -118 116 0
-359 118 116 0
-359 -118 -116 0
361 -358 360 0
361 -358 114 0
-361 358 360 0
-361 358 114 0
361 -358 113 -116 0
361 -358 -113 116 0
-361 358 113 -116 0
-361 358 -113 116 0
361 358 -360 113 116 -114 0
361 358 -360 -113 -116 -114 0
-361 -358 -360 113 116 -114 0
-361 -358 -360 -113 -116 -114 0
363 360 -113 0
363 -360 113 0
-363 360 113 0
-363 -360 -113 0
362 116 -114 0
362 -116 114 0
-362 116 114 0
-362 -116 -114 0
364 -361 363 0
364 -361 112 0
-364 361 363 0
-364 361 112 0
364 -361 111 -114 0
364 -361 -111 114 0
-364 361 111 -114 0
-364 361 -111 114 0
364 361 -363 111 114 -112 0
364 361 -363 -111 -114 -112 0
-364 -361 -363 111 114 -112 0
-364 -361 -363 -111 -114 -112 0
366 363 -111 0
366 -363 111 0
-366 363 111 0
-366 -363 -111 0
365 114 -112 0
365 -114 112 0
-365 114 112 0
-365 -114 -112 0
367 -364 366 0
367 -364 110 0
-367 364 366 0
-367 364 110 0
367 -364 109 -112 0
367 -364 -109 112 0
-367 364 109 -112 0
-367 364 -109 112 0
367 364 -366 109 112 -110 0
367 364 -366 -109 -112 -110 0
-367 -364 -366 109 112 -110 0
-367 -364 -366 -109 -112 -110 0
369 366 -109 0
369 -366 109 0
-369 366 109 0
-369 -366 -109 0
368 112 -110 0
368 -112 110 0
-368 112 110 0
-368 -112 -110 0
370 -367 369 0
370 -367 108 0
-370 367 369 0
-370 367 108 0
370 -367 107 -110 0
370 -367 -107 110 0
-370 367 107 -110 0
-370 367 -107 110 0
370 367 -369 107 110 -108 0
370 367 -369 -107 -110 -108 0
-370 -367 -369 107 110 -108 0
-370 -367 -369 -107 -110 -108 0
372 369 -107 0
372 -369 107 0
-372 369 107 0
-372 -369 -107 0
371 110 -108 0
371 -110 108 0
-371 110 108 0
-371 -110 -108 0
373 -370 372 0
373 -370 106 0
-373 370 372 0
-373 370 106 0
373 -370 105 -108 0
373 -370 -105 108 0
-373 370 105 -108 0
-373 370 -105 108 0
373 370 -372 105 108 -106 0
373 370 -372 -105 -108 -106 0
-373 -370 -372 105 108 -106 0
-373 -370 -372 -105 -108 -106 0
375 372 -105 0
375 -372 105 0
-375 372 105 0
-375 -372 -105 0
374 108 -106 0
374 -108 106 0
-374 108 106 0
-374 -108 -106 0
376 -373 375 0
376 -373 104 0
-376 373 375 0
-376 373 104 0
376 -373 103 -106 0
376 -373 -103 106 0
-376 373 103 -106 0
-376 373 -103 106 0
376 373 -375 103 106 -104 0
376 373 -375 -103 -106 -104 0
-376 -373 -375 103 106 -104 0
-376 -373 -375 -103 -106 -104 0
378 375 -103 0
378 -375 103 0
-378 375 103 0
-378 -375 -103 0
377 106 -104 0
377 -106 104 0
-377 106 104 0
-377 -106 -104 0
379 -376 378 0
379 -376 102 0
-379 376 378 0
-379 376 102 0
379 -376 101 -104 0
379 -376 -101 104 0
-379 376 101 -104 0
-379 376 -101 104 0
379 376 -378 101 104 -102 0
379 376 -378 -101 -104 -102 0
-379 -376 -378 101 104 -102 0
-379 -376 -378 -101 -104 -102 0
381 378 -101 0
381 -378 101 0
-381 378 101 0
-381 -378 -101 0
380 104 -102 0
380 -104 102 0
-380 104 102 0
-380 -104 -102 0
382 -379 381 0
382 -379 100 0
-382 379 381 0
-382 379 100 0
382 -379 99 -102 0
382 -379 -99 102 0
-382 379 99 -102 0
-382 379 -99 102 0
382 379 -381 99 102 -100 0
382 379 -381 -99 -102 -100 0
-382 -379 -381 99 102 -100 0
-382 -379 -381 -99 -102 -100 0
384 381 -99 0
384 -381 99 0
-384 381 99 0
-384 -381 -99 0
383 102 -100 0
383 -102 100 0
-383 102 100 0
-383 -102 -100 0
385 -382 384 0
385 -382 98 0
-385 382 384 0
-385 382 98 0
385 -382 97 -100 0
385 -382 -97 100 0
-385 382 97 -100 0
-385 382 -97 100 0
385 382 -384 97 100 -98 0
385 382 -384 -97 -100 -98 0
-385 -382 -384 97 100 -98 0
-385 -382 -384 -97 -100 -98 0
387 384 -97 0
387 -384 97 0
-387 384 97 0
-387 -384 -97 0
386 100 -98 0
386 -100 98 0
-386 100 98 0
-386 -100 -98 0
388 -385 387 0
388 -385 96 0
-388 385 387 0
-388 385 96 0
388 -385 95 -98 0
388 -385 -95 98 0
-388 385 95 -98 0
-388 385 -95 98 0
388 385 -387 95 98 -96 0
388 385 -387 -95 -98 -96 0
-388 -385 -387 95 98 -96 0
-388 -385 -387 -95 -98 -96 0
390 387 -95 0
390 -387 95 0
-390 387 95 0
-390 -387 -95 0
389 98 -96 0
389 -98 96 0
-389 98 96 0
-389 -98 -96 0
391 -388 390 0
391 -388 94 0
-391 388 390 0
-391 388 94 0
391 -388 93 -96 0
391 -388 -93 96 0
-391 388 93 -96 0
-391 388 -93 96 0
391 388 -390 93 96 -94 0
391 388 -390 -93 -96 -94 0
-391 -388 -390 93 96 -94 0
-391 -388 -390 -93 -96 -94 0
393 390 -93 0
393 -390 93 0
-393 390 93 0
-393 -390 -93 0
392 96 -94 0
392 -96 94 0
-392 96 94 0
-392 -96 -94 0
394 -391 393 0
394 -391 92 0
-394 391 393 0
-394 391 92 0
394 -391 91 -94 0
394 -391 -91 94 0
-394 391 91 -94 0
-394 391 -91 94 0
394 391 -393 91 94 -92 0
394 391 -393 -91 -94 -92 0
-394 -391 -393 91 94 -92 0
-394 -391 -393 -91 -94 -92 0
396 393 -91 0
396 -393 91 0
-396 393 91 0
-396 -393 -91 0
395 94 -92 0
395 -94 92 0
-395 94 92 0
-395 -94 -92 0
397 -394 396 0
397 -394 90 0
-397 394 396 0
-397 394 90 0
397 -394 89 -92 0
397 -394 -89 92 0
-397 394 89 -92 0
-397 394 -89 92 0
397 394 -396 89 92 -90 0
397 394 -396 -89 -92 -90 0
-397 -394 -396 89 92 -90 0
-397 -394 -396 -89 -92 -90 0
399 396 -89 0
399 -396 89 0
-399 396 89 0
-399 -396 -89 0
398 92 -90 0
398 -92 90 0
-398 92 90 0
-398 -92 -90 0
400 -397 399 0
400 -397 88 0
-400 397 399 0
-400 397 88 0
400 -397 87 -90 0
400 -397 -87 90 0
-400 397 87 -90 0
-400 397 -87 90 0
400 397 -399 87 90 -88 0
400 397 -399 -87 -90 -88 0
-400 -397 -399 87 90 -88 0
-400 -397 -399 -87 -90 -88 0
402 399 -87 0
402 -399 87 0
-402 399 87 0
-402 -399 -87 0
401 90 -88 0
401 -90 88 0
-401 90 88 0
-401 -90 -88 0
403 -400 402 0
403 -400 86 0
-403 400 402 0
-403 400 86 0
403 -400 85 -88 0
403 -400 -85 88 0
-403 400 85 -88 0
-403 400 -85 88 0
403 400 -402 85 88 -86 0
403 400 -402 -85 -88 -86 0
-403 -400 -402 85 88 -86 0
-403 -400 -402 -85 -88 -86 0
405 402 -85 0
405 -402 85 0
-405 402 85 0
-405 -402 -85 0
404 88 -86 0
404 -88 86 0
-404 88 86 0
-404 -88 -86 0
406 -403 405 0
406 -403 84 0
-406 403 405 0
-406 403 84 0
406 -403 83 -86 0
406 -403 -83 86 0
-406 403 83 -86 0
-406 403 -83 86 0
406 403 -405 83 86 -84 0
406 403 -405 -83 -86 -84 0
-406 -403 -405 83 86 -84 0
-406 -403 -405 -83 -86 -84 0
408 405 -83 0
408 -405 83 0
-408 405 83 0
-408 -405 -83 0
407 86 -84 0
407 -86 84 0
-407 86 84 0
-407 -86 -84 0
409 -406 408 0
409 -406 82 0
-409 406 408 0
-409 406 82 0
409 -406 81 -84 0
409 -406 -81 84 0
-409 406 81 -84 0
-409 406 -81 84 0
409 406 -408 81 84 -82 0
409 406 -408 -81 -84 -82 0
-409 -406 -408 81 84 -82 0
-409 -406 -408 -81 -84 -82 0
411 408 -81 0
411 -408 81 0
-411 408 81 0
-411 -408 -81 0
410 84 -82 0
410 -84 82 0
-410 84 82 0
-410 -84 -82 0
412 -409 411 0
412 -409 80 0
-412 409 411 0
-412 409 80 0
412 -409 79 -82 0
412 -409 -79 82 0
-412 409 79 -82 0
-412 409 -79 82 0
412 409 -411 79 82 -80 0
412 409 -411 -79 -82 -80 0
-412 -409 -411 79 82 -80 0
-412 -409 -411 -79 -82 -80 0
414 411 -79 0
414 -411 79 0
-414 411 79 0
-414 -411 -79 0
413 82 -80 0
413 -82 80 0
-413 82 80 0
-413 -82 -80 0
415 -412 414 0
415 -412 78 0
-415 412 414 0
-415 412 78 0
415 -412 77 -80 0
415 -412 -77 80 0
-415 412 77 -80 0
-415 412 -77 80 0
415 412 -414 77 80 -78 0
415 412 -414 -77 -80 -78 0
-415 -412 -414 77 80 -78 0
-415 -412 -414 -77 -80 -78 0
417 414 -77 0
417 -414 77 0
-417 414 77 0
-417 -414 -77 0
416 80 -78 0
416 -80 78 0
-416 80 78 0
-416 -80 -78 0
418 -415 417 0
418 -415 76 0
-418 415 417 0
-418 415 76 0
418 -415 75 -78 0
418 -415 -75 78 0
-418 415 75 -78 0
-418 415 -75 78 0
418 415 -417 75 78 -76 0
418 415 -417 -75 -78 -76 0
-418 -415 -417 75 78 -76 0
-418 -415 -417 -75 -78 -76 0
420 417 -75 0
420 -417 75 0
-420 417 75 0
-420 -417 -75 0
419 78 -76 0
419 -78 76 0
-419 78 76 0
-419 -78 -76 0
421 -418 420 0
421 -418 74 0
-421 418 420 0
-421 418 74 0
421 -418 73 -76 0
421 -418 -73 76 0
-421 418 73 -76 0
-421 418 -73 76 0
421 418 -420 73 76 -74 0
421 418 -420 -73 -76 -74 0
-421 -418 -420 73 76 -74 0
-421 -418 -420 -73 -76 -74 0
423 420 -73 0
423 -420 73 0
-423 420 73 0
-423 -420 -73 0
422 76 -74 0
422 -76 74 0
-422 76 74 0
-422 -76 -74 0
424 -421 423 0
424 -421 72 0
-424 421 423 0
-424 421 72 0
424 -421 71 -74 0
424 -421 -71 74 0
-424 421 71 -74 0
-424 421 -71 74 0
424 421 -423 71 74 -72 0
424 421 -423 -71 -74 -72 0
-424 -421 -423 71 74 -72 0
-424 -421 -423 -71 -74 -72 0
426 423 -71 0
426 -423 71 0
-426 423 71 0
-426 -423 -71 0
425 74 -72 0
425 -74 72 0
-425 74 72 0
-425 -74 -72 0
427 -424 426 0
427 -424 70 0
-427 424 426 0
-427 424 70 0
427 -424 69 -72 0
427 -424 -69 72 0
-427 424 69 -72 0
-427 424 -69 72 0
427 424 -426 69 72 -70 0
427 424 -426 -69 -72 -70 0
-427 -424 -426 69 72 -70 0
-427 -424 -426 -69 -72 -70 0
429 426 -69 0
429 -426 69 0
-429 426 69 0
-429 -426 -69 0
428 72 -70 0
428 -72 70 0
-428 72 70 0
-428 -72 -70 0
430 -427 429 0
430 -427 68 0
-430 427 429 0
-430 427 68 0
430 -427 67 -70 0
430 -427 -67 70 0
-430 427 67 -70 0
-430 427 -67 70 0
430 427 -429 67 70 -68 0
430 427 -429 -67 -70 -68 0
-430 -427 -429 67 70 -68 0
-430 -427 -429 -67 -70 -68 0
432 429 -67 0
432 -429 67 0
-432 429 67 0
-432 -429 -67 0
431 70 -68 0
431 -70 68 0
-431 70 68 0
-431 -70 -68 0
433 -430 432 0
433 -430 66 0
-433 430 432 0
-433 430 66 0
433 -430 65 -68 0
433 -430 -65 68 0
-433 430 65 -68 0
-433 430 -65 68 0
433 430 -432 65 68 -66 0
433 430 -432 -65 -68 -66 0
-433 -430 -432 65 68 -66 0
-433 -430 -432 -65 -68 -66 0
435 432 -65 0
435 -432 65 0
-435 432 65 0
-435 -432 -65 0
434 68 -66 0
434 -68 66 0
-434 68 66 0
-434 -68 -66 0
436 -433 435 0
436 -433 64 0
-436 433 435 0
-436 433 64 0
436 -433 63 -66 0
436 -433 -63 66 0
-436 433 63 -66 0
-436 433 -63 66 0
436 433 -435 63 66 -64 0
436 433 -435 -63 -66 -64 0
-436 -433 -435 63 66 -64 0
-436 -433 -435 -63 -66 -64 0
438 435 -63 0
438 -435 63 0
-438 435 63 0
-438 -435 -63 0
437 66 -64 0
437 -66 64 0
-437 66 64 0
-437 -66 -64 0
439 -436 438 0
439 -436 62 0
-439 436 438 0
-439 436 62 0
439 -436 61 -64 0
439 -436 -61 64 0
-439 436 61 -64 0
-439 436 -61 64 0
439 436 -438 61 64 -62 0
439 436 -438 -61 -64 -62 0
-439 -436 -438 61 64 -62 0
-439 -436 -438 -61 -64 -62 0
441 438 -61 0
441 -438 61 0
-441 438 61 0
-441 -438 -61 0
440 64 -62 0
440 -64 62 0
-440 64 62 0
-440 -64 -62 0
442 -439 441 0
442 -439 60 0
-442 439 441 0
-442 439 60 0
442 -439 59 -62 0
442 -439 -59 62 0
-442 439 59 -62 0
-442 439 -59 62 0
442 439 -441 59 62 -60 0
442 439 -441 -59 -62 -60 0
-442 -439 -441 59 62 -60 0
-442 -439 -441 -59 -62 -60 0
444 441 -59 0
444 -441 59 0
-444 441 59 0
-444 -441 -59 0
443 62 -60 0
443 -62 60 0
-443 62 60 0
-443 -62 -60 0
445 -442 444 0
445 -442 58 0
-445 442 444 0
-445 442 58 0
445 -442 57 -60 0
445 -442 -57 60 0
-445 442 57 -60 0
-445 442 -57 60 0
445 442 -444 57 60 -58 0
445 442 -444 -57 -60 -58 0
-445 -442 -444 57 60 -58 0
-445 -442 -444 -57 -60 -58 0
447 444 -57 0
447 -444 57 0
-447 444 57 0
-447 -444 -57 0
446 60 -58 0
446 -60 58 0
-446 60 58 0
-446 -60 -58 0
448 -445 447 0
448 -445 56 0
-448 445 447 0
-448 445 56 0
448 -445 55 -58 0
448 -445 -55 58 0
-448 445 55 -58 0
-448 445 -55 58 0
448 445 -447 55 58 -56 0
448 445 -447 -55 -58 -56 0
-448 -445 -447 55 58 -56 0
-448 -445 -447 -55 -58 -56 0
450 447 -55 0
450 -447 55 0
-450 447 55 0
-450 -447 -55 0
449 58 -56 0
449 -58 56 0
-449 58 56 0
-449 -58 -56 0
451 -448 450 0
451 -448 54 0
-451 448 450 0
-451 448 54 0
451 -448 53 -56 0
451 -448 -53 56 0
-451 448 53 -56 0
-451 448 -53 56 0
451 448 -450 53 56 -54 0
451 448 -450 -53 -56 -54 0
-451 -448 -450 53 56 -54 0
-451 -448 -450 -53 -56 -54 0
453 450 -53 0
453 -450 53 0
-453 450 53 0
-453 -450 -53 0
452 56 -54 0
452 -56 54 0
-452 56 54 0
-452 -56 -54 0
454 -451 453 0
454 -451 52 0
-454 451 453 0
-454 451 52 0
454 -451 51 -54 0
454 -451 -51 54 0
-454 451 51 -54 0
-454 451 -51 54 0
454 451 -453 51 54 -52 0
454 451 -453 -51 -54 -52 0
-454 -451 -453 51 54 -52 0
-454 -451 -453 -51 -54 -52 0
456 453 -51 0
456 -453 51 0
-456 453 51 0
-456 -453 -51 0
455 54 -52 0
455 -54 52 0
-455 54 52 0
-455 -54 -52 0
457 -454 456 0
457 -454 50 0
-457 454 456 0
-457 454 50 0
457 -454 49 -52 0
457 -454 -49 52 0
-457 454 49 -52 0
-457 454 -49 52 0
457 454 -456 49 52 -50 0
457 454 -456 -49 -52 -50 0
-457 -454 -456 49 52 -50 0
-457 -454 -456 -49 -52 -50 0
459 456 -49 0
459 -456 49 0
-459 456 49 0
-459 -456 -49 0
458 52 -50 0
458 -52 50 0
-458 52 50 0
-458 -52 -50 0
460 -457 459 0
460 -457 48 0
-460 457 459 0
-460 457 48 0
460 -457 47 -50 0
460 -457 -47 50 0
-460 457 47 -50 0
-460 457 -47 50 0
460 457 -459 47 50 -48 0
460 457 -459 -47 -50 -48 0
-460 -457 -459 47 50 -48 0
-460 -457 -459 -47 -50 -48 0
462 459 -47 0
462 -459 47 0
-462 459 47 0
-462 -459 -47 0
461 50 -48 0
461 -50 48 0
-461 50 48 0
-461 -50 -48 0
463 -460 462 0
463 -460 46 0
-463 460 462 0
-463 460 46 0
463 -460 45 -48 0
463 -460 -45 48 0
-463 460 45 -48 0
-463 460 -45 48 0
463 460 -462 45 48 -46 0
463 460 -462 -45 -48 -46 0
-463 -460 -462 45 48 -46 0
-463 -460 -462 -45 -48 -46 0
465 462 -45 0
465 -462 45 0
-465 462 45 0
-465 -462 -45 0
464 48 -46 0
464 -48 46 0
-464 48 46 0
-464 -48 -46 0
466 -463 465 0
466 -463 44 0
-466 463 465 0
-466 463 44 0
466 -463 43 -46 0
466 -463 -43 46 0
-466 463 43 -46 0
-466 463 -43 46 0
466 463 -465 43 46 -44 0
466 463 -465 -43 -46 -44 0
-466 -463 -465 43 46 -44 0
-466 -463 -465 -43 -46 -44 0
468 465 -43 0
468 -465 43 0
-468 465 43 0
-468 -465 -43 0
467 46 -44 0
467 -46 44 0
-467 46 44 0
-467 -46 -44 0
469 -466 468 0
469 -466 42 0
-469 466 468 0
-469 466 42 0
469 -466 41 -44 0
469 -466 -41 44 0
-469 466 41 -44 0
-469 466 -41 44 0
469 466 -468 41 44 -42 0
469 466 -468 -41 -44 -42 0
-469 -466 -468 41 44 -42 0
-469 -466 -468 -41 -44 -42 0
471 468 -41 0
471 -468 41 0
-471 468 41 0
-471 -468 -41 0
470 44 -42 0
470 -44 42 0
-470 44 42 0
-470 -44 -42 0
472 -469 471 0
472 -469 40 0
-472 469 471 0
-472 469 40 0
472 -469 39 -42 0
472 -469 -39 42 0
-472 469 39 -42 0
-472 469 -39 42 0
472 469 -471 39 42 -40 0
472 469 -471 -39 -42 -40 0
-472 -469 -471 39 42 -40 0
-472 -469 -471 -39 -42 -40 0
474 471 -39 0
474 -471 39 0
-474 471 39 0
-474 -471 -39 0
473 42 -40 0
473 -42 40 0
-473 42 40 0
-473 -42 -40 0
475 -472 474 0
475 -472 38 0
-475 472 474 0
-475 472 38 0
475 -472 37 -40 0
475 -472 -37 40 0
-475 472 37 -40 0
-475 472 -37 40 0
475 472 -474 37 40 -38 0
475 472 -474 -37 -40 -38 0
-475 -472 -474 37 40 -38 0
-475 -472 -474 -37 -40 -38 0
477 474 -37 0
477 -474 37 0
-477 474 37 0
-477 -474 -37 0
476 40 -38 0
476 -40 38 0
-476 40 38 0
-476 -40 -38 0
478 -475 477 0
478 -475 36 0
-478 475 477 0
-478 475 36 0
478 -475 35 -38 0
478 -475 -35 38 0
-478 475 35 -38 0
-478 475 -35 38 0
478 475 -477 35 38 -36 0
478 475 -477 -35 -38 -36 0
-478 -475 -477 35 38 -36 0
-478 -475 -477 -35 -38 -36 0
480 477 -35 0
480 -477 35 0
-480 477 35 0
-480 -477 -35 0
479 38 -36 0
479 -38 36 0
-479 38 36 0
-479 -38 -36 0
481 -478 480 0
481 -478 34 0
-481 478 480 0
-481 478 34 0
481 -478 33 -36 0
481 -478 -33 36 0
-481 478 33 -36 0
-481 478 -33 36 0
481 478 -480 33 36 -34 0
481 478 -480 -33 -36 -34 0
-481 -478 -480 33 36 -34 0
-481 -478 -480 -33 -36 -34 0
483 480 -33 0
483 -480 33 0
-483 480 33 0
-483 -480 -33 0
482 36 -34 0
482 -36 34 0
-482 36 34 0
-482 -36 -34 0
484 -481 483 0
484 -481 32 0
-484 481 483 0
-484 481 32 0
484 -481 31 -34 0
484 -481 -31 34 0
-484 481 31 -34 0
-484 481 -31 34 0
484 481 -483 31 34 -32 0
484 481 -483 -31 -34 -32 0
-484 -481 -483 31 34 -32 0
-484 -481 -483 -31 -34 -32 0
486 483 -31 0
486 -483 31 0
-486 483 31 0
-486 -483 -31 0
485 34 -32 0
485 -34 32 0
-485 34 32 0
-485 -34 -32 0
487 -484 486 0
487 -484 30 0
-487 484 486 0
-487 484 30 0
487 -484 29 -32 0
487 -484 -29 32 0
-487 484 29 -32 0
-487 484 -29 32 0
487 484 -486 29 32 -30 0
487 484 -486 -29 -32 -30 0
-487 -484 -486 29 32 -30 0
-487 -484 -486 -29 -32 -30 0
489 486 -29 0
489 -486 29 0
-489 486 29 0
-489 -486 -29 0
488 32 -30 0
488 -32 30 0
-488 32 30 0
-488 -32 -30 0
490 -487 489 0
490 -487 28 0
-490 487 489 0
-490 487 28 0
490 -487 27 -30 0
490 -487 -27 30 0
-490 487 27 -30 0
-490 487 -27 30 0
490 487 -489 27 30 -28 0
490 487 -489 -27 -30 -28 0
-490 -487 -489 27 30 -28 0
-490 -487 -489 -27 -30 -28 0
492 489 -27 0
492 -489 27 0
-492 489 27 0
-492 -489 -27 0
491 30 -28 0
491 -30 28 0
-491 30 28 0
-491 -30 -28 0
493 -490 492 0
493 -490 26 0
-493 490 492 0
-493 490 26 0
493 -490 25 -28 0
493 -490 -25 28 0
-493 490 25 -28 0
-493 490 -25 28 0
493 490 -492 25 28 -26 0
493 490 -492 -25 -28 -26 0
-493 -490 -492 25 28 -26 0
-493 -490 -492 -25 -28 -26 0
495 492 -25 0
495 -492 25 0
-495 492 25 0
-495 -492 -25 0
494 28 -26 0
494 -28 26 0
-494 28 26 0
-494 -28 -26 0
496 -493 495 0
496 -493 24 0
-496 493 495 0
-496 493 24 0
496 -493 23 -26 0
496 -493 -23 26 0
-496 493 23 -26 0
-496 493 -23 26 0
496 493 -495 23 26 -24 0
496 493 -495 -23 -26 -24 0
-496 -493 -495 23 26 -24 0
-496 -493 -495 -23 -26 -24 0
498 495 -23 0
498 -495 23 0
-498 495 23 0
-498 -495 -23 0
497 26 -24 0
497 -26 24 0
-497 26 24 0
-497 -26 -24 0
499 -496 498 0
499 -496 22 0
-499 496 498 0
-499 496 22 0
499 -496 21 -24 0
499 -496 -21 24 0
-499 496 21 -24 0
-499 496 -21 24 0
499 496 -498 21 24 -22 0
499 496 -498 -21 -24 -22 0
-499 -496 -498 21 24 -22 0
-499 -496 -498 -21 -24 -22 0
501 498 -21 0
501 -498 21 0
-501 498 21 0
-501 -498 -21 0
500 24 -22 0
500 -24 22 0
-500 24 22 0
-500 -24 -22 0
502 -499 501 0
502 -499 20 0
-502 499 501 0
-502 499 20 0
502 -499 19 -22 0
502 -499 -19 22 0
-502 499 19 -22 0
-502 499 -19 22 0
502 499 -501 19 22 -20 0
502 499 -501 -19 -22 -20 0
-502 -499 -501 19 22 -20 0
-502 -499 -501 -19 -22 -20 0
504 501 -19 0
504 -501 19 0
-504 501 19 0
-504 -501 -19 0
503 22 -20 0
503 -22 20 0
-503 22 20 0
-503 -22 -20 0
505 -502 504 0
505 -502 18 0
-505 502 504 0
-505 502 18 0
505 -502 17 -20 0
505 -502 -17 20 0
-505 502 17 -20 0
-505 502 -17 20 0
505 502 -504 17 20 -18 0
505 502 -504 -17 -20 -18 0
-505 -502 -504 17 20 -18 0
-505 -502 -504 -17 -20 -18 0
507 504 -17 0
507 -504 17 0
-507 504 17 0
-507 -504 -17 0
506 20 -18 0
506 -20 18 0
-506 20 18 0
-506 -20 -18 0
508 -505 507 0
508 -505 16 0
-508 505 507 0
-508 505 16 0
508 -505 15 -18 0
508 -505 -15 18 0
-508 505 15 -18 0
-508 505 -15 18 0
508 505 -507 15 18 -16 0
508 505 -507 -15 -18 -16 0
-508 -505 -507 15 18 -16 0
-508 -505 -507 -15 -18 -16 0
510 507 -15 0
510 -507 15 0
-510 507 15 0
-510 -507 -15 0
509 18 -16 0
509 -18 16 0
-509 18 16 0
-509 -18 -16 0
511 -508 510 0
511 -508 14 0
-511 508 510 0
-511 508 14 0
511 -508 13 -16 0
511 -508 -13 16 0
-511 508 13 -16 0
-511 508 -13 16 0
511 508 -510 13 16 -14 0
511 508 -510 -13 -16 -14 0
-511 -508 -510 13 16 -14 0
-511 -508 -510 -13 -16 -14 0
513 510 -13 0
513 -510 13 0
-513 510 13 0
-513 -510 -13 0
512 16 -14 0
512 -16 14 0
-512 16 14 0
-512 -16 -14 0
514 -511 513 0
514 -511 12 0
-514 511 513 0
-514 511 12 0
514 -511 11 -14 0
514 -511 -11 14 0
-514 511 11 -14 0
-514 511 -11 14 0
514 511 -513 11 14 -12 0
514 511 -513 -11 -14 -12 0
-514 -511 -513 11 14 -12 0
-514 -511 -513 -11 -14 -12 0
516 513 -11 0
516 -513 11 0
-516 513 11 0
-516 -513 -11 0
515 14 -12 0
515 -14 12 0
-515 14 12 0
-515 -14 -12 0
517 -514 516 0
517 -514 10 0
-517 514 516 0
-517 514 10 0
517 -514 9 -12 0
517 -514 -9 12 0
-517 514 9 -12 0
-517 514 -9 12 0
517 514 -516 9 12 -10 0
517 514 -516 -9 -12 -10 0
-517 -514 -516 9 12 -10 0
-517 -514 -516 -9 -12 -10 0
519 516 -9 0
519 -516 9 0
-519 516 9 0
-519 -516 -9 0
518 12 -10 0
518 -12 10 0
-518 12 10 0
-518 -12 -10 0
520 -517 519 0
520 -517 8 0
-520 517 519 0
-520 517 8 0
520 -517 7 -10 0
520 -517 -7 10 0
-520 517 7 -10 0
-520 517 -7 10 0
520 517 -519 7 10 -8 0
520 517 -519 -7 -10 -8 0
-520 -517 -519 7 10 -8 0
-520 -517 -519 -7 -10 -8 0
522 519 -7 0
522 -519 7 0
-522 519 7 0
-522 -519 -7 0
521 10 -8 0
521 -10 8 0
-521 10 8 0
-521 -10 -8 0
523 -520 522 0
523 -520 6 0
-523 520 522 0
-523 520 6 0
523 -520 5 -8 0
523 -520 -5 8 0
-523 520 5 -8 0
-523 520 -5 8 0
523 520 -522 5 8 -6 0
523 520 -522 -5 -8 -6 0
-523 -520 -522 5 8 -6 0
-523 -520 -522 -5 -8 -6 0
525 522 -5 0
525 -522 5 0
-525 522 5 0
-525 -522 -5 0
524 8 -6 0
524 -8 6 0
-524 8 6 0
-524 -8 -6 0
526 -523 525 0
526 -523 4 0
-526 523 525 0
-526 523 4 0
526 -523 3 -6 0
526 -523 -3 6 0
-526 523 3 -6 0
-526 523 -3 6 0
526 523 -525 3 6 -4 0
526 523 -525 -3 -6 -4 0
-526 -523 -525 3 6 -4 0
-526 -523 -525 -3 -6 -4 0
528 525 -3 0
528 -525 3 0
-528 525 3 0
-528 -525 -3 0
527 6 -4 0
527 -6 4 0
-527 6 4 0
-527 -6 -4 0
529 -526 528 0
529 -526 2 0
-529 526 528 0
-529 526 2 0
529 -526 1 -4 0
529 -526 -1 4 0
-529 526 1 -4 0
-529 526 -1 4 0
529 526 -528 1 4 -2 0
529 526 -528 -1 -4 -2 0
-529 -526 -528 1 4 -2 0
-529 -526 -528 -1 -4 -2 0
531 528 -1 0
531 -528 1 0
-531 528 1 0
-531 -528 -1 0
530 4 -2 0
530 -4 2 0
-530 4 2 0
-530 -4 -2 0
